outputs/case_201.smt2
; SMT2 file generated from compliance case automatic
; Case ID: case_201
; Generated at: 2025-10-21T04:23:41.602636
;
; This file can be executed with Z3:
;   z3 case_201.smt2
;

(set-logic ALL)

; ============================================================
; Variable Declarations
; ============================================================

(declare-const capital_adequacy_ratio Real)
(declare-const capital_insufficient_measures_executed Bool)
(declare-const capital_insufficient_measures_executed_flag Bool)
(declare-const capital_level Int)
(declare-const capital_level_lowest Int)
(declare-const capital_severely_insufficient_measures_executed Bool)
(declare-const capital_severely_insufficient_measures_executed_flag Bool)
(declare-const capital_severely_insufficient_penalty_condition Bool)
(declare-const capital_significantly_insufficient_measures_executed Bool)
(declare-const capital_significantly_insufficient_measures_executed_flag Bool)
(declare-const financial_or_business_deterioration Bool)
(declare-const financial_or_business_deterioration_flag Bool)
(declare-const improvement_plan_accelerated_deterioration Bool)
(declare-const improvement_plan_accelerated_deterioration_flag Bool)
(declare-const improvement_plan_approved Bool)
(declare-const improvement_plan_approved_flag Bool)
(declare-const improvement_plan_completed Bool)
(declare-const improvement_plan_completed_flag Bool)
(declare-const net_worth Real)
(declare-const net_worth_ratio Real)
(declare-const net_worth_ratio_prev Real)
(declare-const penalty Bool)
(declare-const supervisory_measures_needed Bool)

; ============================================================
; Constraints (Legal Rules)
; ============================================================

; [insurance:capital_level] 保險業資本等級分類（1=適足, 2=不足, 3=顯著不足, 4=嚴重不足）
(assert (let ((a!1 (or (and (<= 50.0 capital_adequacy_ratio)
                    (not (<= 150.0 capital_adequacy_ratio)))
               (and (not (<= 2.0 net_worth_ratio)) (<= 0.0 net_worth_ratio))))
      (a!2 (or (and (<= 150.0 capital_adequacy_ratio)
                    (not (<= 200.0 capital_adequacy_ratio)))
               (and (not (<= 3.0 net_worth_ratio)) (<= 2.0 net_worth_ratio))))
      (a!3 (ite (and (<= 200.0 capital_adequacy_ratio)
                     (or (<= 3.0 net_worth_ratio) (<= 3.0 net_worth_ratio_prev)))
                1
                0)))
(let ((a!4 (ite (or (not (<= 0.0 net_worth))
                    (not (<= 50.0 capital_adequacy_ratio)))
                4
                (ite a!1 3 (ite a!2 2 a!3)))))
  (= capital_level a!4))))

; [insurance:capital_level_lowest_rule] 資本等級以較低等級為準
(assert (= capital_level_lowest capital_level))

; [insurance:capital_severely_insufficient_measures_executed] 資本嚴重不足等級措施已執行
(assert (= capital_severely_insufficient_measures_executed
   capital_severely_insufficient_measures_executed_flag))

; [insurance:capital_significantly_insufficient_measures_executed] 資本顯著不足等級措施已執行
(assert (= capital_significantly_insufficient_measures_executed
   capital_significantly_insufficient_measures_executed_flag))

; [insurance:capital_insufficient_measures_executed] 資本不足等級措施已執行
(assert (= capital_insufficient_measures_executed
   capital_insufficient_measures_executed_flag))

; [insurance:improvement_plan_completed] 增資、財務或業務改善計畫或合併已於主管機關規定期限內完成
(assert (= improvement_plan_completed improvement_plan_completed_flag))

; [insurance:capital_severely_insufficient_penalty_condition] 資本嚴重不足且未於期限完成增資或改善計畫
(assert (= capital_severely_insufficient_penalty_condition
   (and (= 4 capital_level) (not improvement_plan_completed))))

; [insurance:financial_or_business_deterioration] 財務或業務狀況顯著惡化，不能支付債務或有損及被保險人權益之虞
(assert (= financial_or_business_deterioration financial_or_business_deterioration_flag))

; [insurance:improvement_plan_approved] 主管機關核定財務或業務改善計畫
(assert (= improvement_plan_approved improvement_plan_approved_flag))

; [insurance:improvement_plan_accelerated_deterioration] 損益、淨值加速惡化或經輔導仍未改善
(assert (= improvement_plan_accelerated_deterioration
   improvement_plan_accelerated_deterioration_flag))

; [insurance:supervisory_measures_needed] 依情節輕重得為監管、接管、勒令停業清理或命令解散之處分
(assert (= supervisory_measures_needed
   (and financial_or_business_deterioration
        improvement_plan_approved
        improvement_plan_accelerated_deterioration)))

; [insurance:penalty_default_false] 預設不處罰
(assert (not penalty))

; [meta:penalty_conditions] 處罰條件：資本嚴重不足且未完成改善計畫，或財務業務惡化未改善時處罰
(assert (= penalty
   (or (not improvement_plan_completed)
       (and financial_or_business_deterioration (not improvement_plan_approved))
       (and financial_or_business_deterioration
            improvement_plan_approved
            (not improvement_plan_accelerated_deterioration)))))

; ============================================================
; Facts (Case Specific)
; ============================================================

(assert (= capital_adequacy_ratio 40.0))
(assert (= net_worth -10.0))
(assert (= net_worth_ratio (/ 3.0 2.0)))
(assert (= net_worth_ratio_prev (/ 3.0 2.0)))
(assert (= capital_insufficient_measures_executed_flag false))
(assert (= capital_significantly_insufficient_measures_executed_flag false))
(assert (= capital_severely_insufficient_measures_executed_flag false))
(assert (= improvement_plan_completed_flag false))
(assert (= financial_or_business_deterioration_flag false))
(assert (= improvement_plan_approved_flag false))
(assert (= improvement_plan_accelerated_deterioration_flag false))

; ============================================================
; Check Satisfiability
; ============================================================

(check-sat)
(get-model)

; ============================================================
; Additional Information
; ============================================================
; Total constraints: 13
; Total variables: 23
; Total facts: 11
;
; Expected result:
;   - If UNSAT: Case violates legal rules
;   - If SAT: Case complies with legal rules (or error in constraints)
