outputs/case_201.model.txt
capital_adequacy_ratio = 40
capital_significantly_insufficient_measures_executed_flag = False
net_worth_ratio_prev = 3/2
financial_or_business_deterioration_flag = False
improvement_plan_accelerated_deterioration_flag = False
net_worth_ratio = 3/2
capital_insufficient_measures_executed_flag = False
net_worth = -10
improvement_plan_approved_flag = False
capital_severely_insufficient_measures_executed_flag = False
improvement_plan_completed_flag = True
penalty = False
financial_or_business_deterioration = False
improvement_plan_accelerated_deterioration = False
improvement_plan_approved = False
capital_level_lowest = 4
capital_severely_insufficient_measures_executed = False
capital_insufficient_measures_executed = False
capital_significantly_insufficient_measures_executed = False
capital_level = 4
capital_severely_insufficient_penalty_condition = False
improvement_plan_completed = True
supervisory_measures_needed = False